p cnf 10 20
8 3 -4 0
3 4 7 0
-5 -3 -2 0
1 -2 -10 0
8 9 10 0
-8 1 -4 0
-7 -10 -9 0
9 3 5 0
8 -5 -9 0
3 -4 5 0
-6 3 -2 0
1 -4 5 0
-8 1 -10 0
5 6 -9 0
5 -10 6 0
-8 1 10 0
-5 -10 7 0
-6 -1 -2 0
-6 -1 -2 0
-8 5 -1 0
